3395
3374
3338
3367
3412
3349
3327
3286
3348
3309
3342
3348
3378
3270
3372
3333
3362
3332
3384
3323
3345
3345
3348
3378
3394
3333
3293
3364
3295
3235
3332
3370
3297
3334
3353
3310
3359
3336
3304
3374
3366
3305
3390
3351
3368
3324
3354
3347
3421
3371
3379
3291
3285
3344
3380
3289
3387
3350
3305
3316
3360
3370
3335
3304
3359
3339
3343
3390
3323
3360
3390
3358
3325
3305
3310
3353
3392
3302
3343
3310
3368
3356
3342
3286
3355
3335
3355
3393
3358
3292
3386
3404
3351
3346
3345
3331
3312
3386
3436
3373
